Minimize
  - 6 y_0 - 6 y_1 - y_2 - 5 y_3 - 5 y_4 - 4 y_5 - 2 y_6 - 4 y_7 - 6 y_8
   - 5 y_9 - 5 y_10 - 5 y_11 - 3 y_12 - 3 y_13 - 4 y_14 - 4 y_15 - y_16
   - 5 y_17 - 4 y_18 - 6 y_19 - 3 y_20 - 2 y_21 - 5 y_22 - 3 y_23 - 2 y_24
   - 4 y_25 - 4 y_26 - 4 y_27 - 7 y_28 - 4 y_29 - 6 y_30 - y_31 - 2 y_32
   - 4 y_33 - 3 y_35 - 6 y_36 - 4 y_37 - 3 y_38 - 5 y_39 - 4 y_40 - 3 y_41
   - 6 y_42 - 3 y_43 - 4 y_44 - 3 y_45 - 4 y_47 - 5 y_48 - 6 y_49
   + 194 Constant
Subject To
 c_0: y_46 = 1
 c_1_0: y_0 >= 1
 c_1_1: y_1 + y_42 >= 1
 c_1_2: y_2 + y_6 >= 1
 c_1_3: y_3 + y_8 + y_10 >= 1
 c_1_4: y_4 >= 1
 c_1_5: y_5 >= 1
 c_1_6: y_2 + y_6 + y_16 >= 1
 c_1_7: y_7 + y_27 >= 1
 c_1_8: y_3 + y_8 >= 1
 c_1_9: y_9 >= 1
 c_1_10: y_3 + y_10 + y_29 >= 1
 c_1_11: y_11 + y_22 + y_40 >= 1
 c_1_12: y_12 + y_23 >= 1
 c_1_13: y_13 + y_25 >= 1
 c_1_14: y_14 + y_18 + y_26 + y_37 + y_47 >= 1
 c_1_15: y_15 >= 1
 c_1_16: y_6 + y_16 + y_34 + y_46 >= 1
 c_1_17: y_17 + y_22 + y_40 + y_48 >= 1
 c_1_18: y_14 + y_18 + y_26 + y_47 >= 1
 c_1_19: y_19 + y_49 >= 1
 c_1_20: y_20 >= 1
 c_1_21: y_21 + y_23 >= 1
 c_1_22: y_11 + y_17 + y_22 + y_40 >= 1
 c_1_23: y_12 + y_21 + y_23 >= 1
 c_1_24: y_24 + y_32 >= 1
 c_1_25: y_13 + y_25 >= 1
 c_1_26: y_14 + y_18 + y_26 + y_37 + y_47 >= 1
 c_1_27: y_7 + y_27 >= 1
 c_1_28: y_28 >= 1
 c_1_29: y_10 + y_29 + y_38 >= 1
 c_1_30: y_30 + y_48 >= 1
 c_1_31: y_31 >= 1
 c_1_32: y_24 + y_32 + y_41 + y_43 >= 1
 c_1_33: y_33 + y_45 >= 1
 c_1_34: y_16 + y_34 + y_46 >= 1
 c_1_35: y_35 >= 1
 c_1_36: y_36 + y_42 >= 1
 c_1_37: y_14 + y_26 + y_37 + y_41 + y_47 >= 1
 c_1_38: y_29 + y_38 >= 1
 c_1_39: y_39 >= 1
 c_1_40: y_11 + y_17 + y_22 + y_40 >= 1
 c_1_41: y_32 + y_37 + y_41 + y_43 >= 1
 c_1_42: y_1 + y_36 + y_42 >= 1
 c_1_43: y_32 + y_41 + y_43 >= 1
 c_1_44: y_44 >= 1
 c_1_45: y_33 + y_45 >= 1
 c_1_46: y_16 + y_34 + y_46 >= 1
 c_1_47: y_14 + y_18 + y_26 + y_37 + y_47 >= 1
 c_1_48: y_17 + y_30 + y_48 >= 1
 c_1_49: y_19 + y_49 >= 1
Bounds
 Constant = 1
Binaries
 y_0 y_1 y_2 y_3 y_4 y_5 y_6 y_7 y_8 y_9 y_10 y_11 y_12 y_13 y_14 y_15 y_16
 y_17 y_18 y_19 y_20 y_21 y_22 y_23 y_24 y_25 y_26 y_27 y_28 y_29 y_30 y_31
 y_32 y_33 y_34 y_35 y_36 y_37 y_38 y_39 y_40 y_41 y_42 y_43 y_44 y_45 y_46
 y_47 y_48 y_49
End
